\* Source Pyomo model name=unknown *\

max 
x1:
+1 x298
+1 x299
+1 x300
+1 x301
+1 x302
+1 x303
+1 x304
+1 x305
+1 x306
+2 x307
+2 x308
+1 x309
+1 x310
+1 x311
+1 x312
+1 x313
+2 x314
+1 x315
+1 x316
+1 x317
+1 x318
+1 x319
+1 x320
+1 x321
+1 x322
+1 x323
+1 x324
+1 x325
+1 x326
+1 x327
+1 x328
+1 x329
+2 x330
+1 x331
+1 x332
+1 x333
+1 x334
+1 x335
+1 x336
+1 x337
+1 x338
+1 x339
+1 x340
+1 x341
+1 x342
+1 x343
+1 x344
+1 x345
+1 x346
+1 x347
+1 x348
+1 x349
+1 x350
+1 x351
+1 x352
+1 x353
+1 x354
+1 x355
+1 x356
+1 x357
+1 x358
+1 x359
+1 x360
+1 x361

s.t.

c_l_x26_:
+1 x306
+1 x354
>= 1

c_l_x27_:
+1 x307
+1 x355
>= 1

c_l_x28_:
+1 x308
+1 x356
>= 1

c_l_x29_:
+1 x309
+1 x357
>= 0

c_l_x30_:
+1 x310
+1 x358
>= 0

c_l_x31_:
+1 x311
+1 x359
>= 0

c_l_x32_:
+1 x312
+1 x360
>= 0

c_l_x33_:
+1 x313
+1 x361
>= 0

c_l_x34_:
+1 x322
>= 1

c_l_x35_:
+1 x323
>= 1

c_l_x36_:
+1 x324
>= 1

c_l_x37_:
+1 x325
>= 0

c_l_x38_:
+1 x326
>= 0

c_l_x39_:
+1 x327
>= 0

c_l_x40_:
+1 x328
>= 0

c_l_x41_:
+1 x329
>= 0

c_l_x42_:
+1 x338
>= 1

c_l_x43_:
+1 x339
>= 1

c_l_x44_:
+1 x340
>= 1

c_l_x45_:
+1 x341
>= 0

c_l_x46_:
+1 x342
>= 0

c_l_x47_:
+1 x343
>= 0

c_l_x48_:
+1 x344
>= 0

c_l_x49_:
+1 x345
>= 0

c_l_x2_:
+1 x298
+1 x346
>= 0

c_l_x3_:
+1 x299
+1 x347
>= 0

c_l_x4_:
+1 x300
+1 x348
>= 0

c_l_x5_:
+1 x301
+1 x349
>= 0

c_l_x6_:
+1 x302
+1 x350
>= 0

c_l_x7_:
+1 x303
+1 x351
>= 0

c_l_x8_:
+1 x304
+1 x352
>= 0

c_l_x9_:
+1 x305
+1 x353
>= 0

c_l_x10_:
+1 x314
>= 0

c_l_x11_:
+1 x315
>= 0

c_l_x12_:
+1 x316
>= 0

c_l_x13_:
+1 x317
>= 0

c_l_x14_:
+1 x318
>= 0

c_l_x15_:
+1 x319
>= 0

c_l_x16_:
+1 x320
>= 0

c_l_x17_:
+1 x321
>= 0

c_l_x18_:
+1 x330
>= 0

c_l_x19_:
+1 x331
>= 0

c_l_x20_:
+1 x332
>= 0

c_l_x21_:
+1 x333
>= 0

c_l_x22_:
+1 x334
>= 0

c_l_x23_:
+1 x335
>= 0

c_l_x24_:
+1 x336
>= 0

c_l_x25_:
+1 x337
>= 0

c_u_x74_:
+1 x306
+1 x354
<= 3

c_u_x75_:
+1 x307
+1 x355
<= 3

c_u_x76_:
+1 x308
+1 x356
<= 3

c_u_x77_:
+1 x309
+1 x357
<= 9.2233720368547758e+18

c_u_x78_:
+1 x310
+1 x358
<= 9.2233720368547758e+18

c_u_x79_:
+1 x311
+1 x359
<= 9.2233720368547758e+18

c_u_x80_:
+1 x312
+1 x360
<= 9.2233720368547758e+18

c_u_x81_:
+1 x313
+1 x361
<= 9.2233720368547758e+18

c_u_x82_:
+1 x322
<= 3

c_u_x83_:
+1 x323
<= 3

c_u_x84_:
+1 x324
<= 3

c_u_x85_:
+1 x325
<= 9.2233720368547758e+18

c_u_x86_:
+1 x326
<= 9.2233720368547758e+18

c_u_x87_:
+1 x327
<= 9.2233720368547758e+18

c_u_x88_:
+1 x328
<= 9.2233720368547758e+18

c_u_x89_:
+1 x329
<= 9.2233720368547758e+18

c_u_x90_:
+1 x338
<= 3

c_u_x91_:
+1 x339
<= 3

c_u_x92_:
+1 x340
<= 3

c_u_x93_:
+1 x341
<= 9.2233720368547758e+18

c_u_x94_:
+1 x342
<= 9.2233720368547758e+18

c_u_x95_:
+1 x343
<= 9.2233720368547758e+18

c_u_x96_:
+1 x344
<= 9.2233720368547758e+18

c_u_x97_:
+1 x345
<= 9.2233720368547758e+18

c_u_x50_:
+1 x298
+1 x346
<= 9.2233720368547758e+18

c_u_x51_:
+1 x299
+1 x347
<= 9.2233720368547758e+18

c_u_x52_:
+1 x300
+1 x348
<= 9.2233720368547758e+18

c_u_x53_:
+1 x301
+1 x349
<= 9.2233720368547758e+18

c_u_x54_:
+1 x302
+1 x350
<= 9.2233720368547758e+18

c_u_x55_:
+1 x303
+1 x351
<= 9.2233720368547758e+18

c_u_x56_:
+1 x304
+1 x352
<= 9.2233720368547758e+18

c_u_x57_:
+1 x305
+1 x353
<= 9.2233720368547758e+18

c_u_x58_:
+1 x314
<= 9.2233720368547758e+18

c_u_x59_:
+1 x315
<= 9.2233720368547758e+18

c_u_x60_:
+1 x316
<= 9.2233720368547758e+18

c_u_x61_:
+1 x317
<= 9.2233720368547758e+18

c_u_x62_:
+1 x318
<= 9.2233720368547758e+18

c_u_x63_:
+1 x319
<= 9.2233720368547758e+18

c_u_x64_:
+1 x320
<= 9.2233720368547758e+18

c_u_x65_:
+1 x321
<= 9.2233720368547758e+18

c_u_x66_:
+1 x330
<= 9.2233720368547758e+18

c_u_x67_:
+1 x331
<= 9.2233720368547758e+18

c_u_x68_:
+1 x332
<= 9.2233720368547758e+18

c_u_x69_:
+1 x333
<= 9.2233720368547758e+18

c_u_x70_:
+1 x334
<= 9.2233720368547758e+18

c_u_x71_:
+1 x335
<= 9.2233720368547758e+18

c_u_x72_:
+1 x336
<= 9.2233720368547758e+18

c_u_x73_:
+1 x337
<= 9.2233720368547758e+18

c_u_x98_:
+1 x298
+1 x306
<= 1

c_u_x99_:
+1 x299
+1 x307
<= 1

c_u_x100_:
+1 x300
+1 x308
<= 1

c_u_x101_:
+1 x301
+1 x309
<= 1

c_u_x102_:
+1 x302
+1 x310
<= 1

c_u_x103_:
+1 x303
+1 x311
<= 1

c_u_x104_:
+1 x304
+1 x312
<= 1

c_u_x105_:
+1 x305
+1 x313
<= 1

c_u_x106_:
+1 x314
+1 x322
<= 1

c_u_x107_:
+1 x315
+1 x323
<= 1

c_u_x108_:
+1 x316
+1 x324
<= 1

c_u_x109_:
+1 x317
+1 x325
<= 1

c_u_x110_:
+1 x318
+1 x326
<= 1

c_u_x111_:
+1 x319
+1 x327
<= 1

c_u_x112_:
+1 x320
+1 x328
<= 1

c_u_x113_:
+1 x321
+1 x329
<= 1

c_u_x114_:
+1 x330
+1 x338
<= 1

c_u_x115_:
+1 x331
+1 x339
<= 1

c_u_x116_:
+1 x332
+1 x340
<= 1

c_u_x117_:
+1 x333
+1 x341
<= 1

c_u_x118_:
+1 x334
+1 x342
<= 1

c_u_x119_:
+1 x335
+1 x343
<= 1

c_u_x120_:
+1 x336
+1 x344
<= 1

c_u_x121_:
+1 x337
+1 x345
<= 1

c_u_x122_:
+1 x346
+1 x354
<= 1

c_u_x123_:
+1 x347
+1 x355
<= 1

c_u_x124_:
+1 x348
+1 x356
<= 1

c_u_x125_:
+1 x349
+1 x357
<= 1

c_u_x126_:
+1 x350
+1 x358
<= 1

c_u_x127_:
+1 x351
+1 x359
<= 1

c_u_x128_:
+1 x352
+1 x360
<= 1

c_u_x129_:
+1 x353
+1 x361
<= 1

c_l_x131_:
+1 x306
+1 x307
+1 x308
+1 x309
+1 x310
+1 x311
+1 x312
+1 x313
>= 0

c_l_x130_:
+1 x298
+1 x299
+1 x300
+1 x301
+1 x302
+1 x303
+1 x304
+1 x305
>= 0

c_l_x133_:
+1 x322
+1 x323
+1 x324
+1 x325
+1 x326
+1 x327
+1 x328
+1 x329
>= 0

c_l_x132_:
+1 x314
+1 x315
+1 x316
+1 x317
+1 x318
+1 x319
+1 x320
+1 x321
>= 0

c_l_x135_:
+1 x338
+1 x339
+1 x340
+1 x341
+1 x342
+1 x343
+1 x344
+1 x345
>= 0

c_l_x134_:
+1 x330
+1 x331
+1 x332
+1 x333
+1 x334
+1 x335
+1 x336
+1 x337
>= 0

c_l_x137_:
+1 x354
+1 x355
+1 x356
+1 x357
+1 x358
+1 x359
+1 x360
+1 x361
>= 0

c_l_x136_:
+1 x346
+1 x347
+1 x348
+1 x349
+1 x350
+1 x351
+1 x352
+1 x353
>= 0

c_u_x139_:
+1 x306
+1 x307
+1 x308
+1 x309
+1 x310
+1 x311
+1 x312
+1 x313
<= 9.2233720368547758e+18

c_u_x138_:
+1 x298
+1 x299
+1 x300
+1 x301
+1 x302
+1 x303
+1 x304
+1 x305
<= 9.2233720368547758e+18

c_u_x141_:
+1 x322
+1 x323
+1 x324
+1 x325
+1 x326
+1 x327
+1 x328
+1 x329
<= 9.2233720368547758e+18

c_u_x140_:
+1 x314
+1 x315
+1 x316
+1 x317
+1 x318
+1 x319
+1 x320
+1 x321
<= 9.2233720368547758e+18

c_u_x143_:
+1 x338
+1 x339
+1 x340
+1 x341
+1 x342
+1 x343
+1 x344
+1 x345
<= 9.2233720368547758e+18

c_u_x142_:
+1 x330
+1 x331
+1 x332
+1 x333
+1 x334
+1 x335
+1 x336
+1 x337
<= 9.2233720368547758e+18

c_u_x145_:
+1 x354
+1 x355
+1 x356
+1 x357
+1 x358
+1 x359
+1 x360
+1 x361
<= 9.2233720368547758e+18

c_u_x144_:
+1 x346
+1 x347
+1 x348
+1 x349
+1 x350
+1 x351
+1 x352
+1 x353
<= 9.2233720368547758e+18

c_l_x159_:
+1 x306
+1 x307
+1 x308
>= 0

c_l_x161_:
+1 x309
+1 x310
+1 x311
>= 0

c_l_x163_:
+1 x312
+1 x313
>= 0

c_l_x166_:
+1 x298
+1 x299
+1 x300
>= 0

c_l_x169_:
+1 x301
+1 x302
+1 x303
>= 0

c_l_x168_:
+1 x304
+1 x305
>= 0

c_l_x158_:
+1 x322
+1 x323
>= 0

c_l_x147_:
+1 x324
+1 x325
+1 x326
>= 0

c_l_x167_:
+1 x327
+1 x328
+1 x329
>= 0

c_l_x160_:
+1 x314
+1 x315
>= 0

c_l_x152_:
+1 x316
+1 x317
+1 x318
>= 0

c_l_x156_:
+1 x319
+1 x320
+1 x321
>= 0

c_l_x149_:
+1 x338
+1 x339
>= 0

c_l_x155_:
+1 x340
+1 x341
+1 x342
>= 0

c_l_x146_:
+1 x343
+1 x344
+1 x345
>= 0

c_l_x165_:
+1 x330
+1 x331
>= 0

c_l_x164_:
+1 x332
+1 x333
+1 x334
>= 0

c_l_x162_:
+1 x335
+1 x336
+1 x337
>= 0

c_l_x151_:
+1 x354
+1 x355
+1 x356
>= 0

c_l_x157_:
+1 x357
+1 x358
+1 x359
>= 0

c_l_x153_:
+1 x360
+1 x361
>= 0

c_l_x148_:
+1 x346
+1 x347
+1 x348
>= 0

c_l_x154_:
+1 x349
+1 x350
+1 x351
>= 0

c_l_x150_:
+1 x352
+1 x353
>= 0

c_u_x183_:
+1 x306
+1 x307
+1 x308
-9.2233720368547758e+18 x368
<= 0

c_u_x185_:
+1 x309
+1 x310
+1 x311
-9.2233720368547758e+18 x369
<= 0

c_u_x187_:
+1 x312
+1 x313
-9.2233720368547758e+18 x370
<= 0

c_u_x190_:
+1 x298
+1 x299
+1 x300
-9.2233720368547758e+18 x362
<= 0

c_u_x193_:
+1 x301
+1 x302
+1 x303
-9.2233720368547758e+18 x363
<= 0

c_u_x192_:
+1 x304
+1 x305
-9.2233720368547758e+18 x364
<= 0

c_u_x182_:
+1 x322
+1 x323
-9.2233720368547758e+18 x383
<= 0

c_u_x171_:
+1 x324
+1 x325
+1 x326
-9.2233720368547758e+18 x384
<= 0

c_u_x191_:
+1 x327
+1 x328
+1 x329
-9.2233720368547758e+18 x385
<= 0

c_u_x184_:
+1 x314
+1 x315
-9.2233720368547758e+18 x377
<= 0

c_u_x176_:
+1 x316
+1 x317
+1 x318
-9.2233720368547758e+18 x378
<= 0

c_u_x180_:
+1 x319
+1 x320
+1 x321
-9.2233720368547758e+18 x379
<= 0

c_u_x173_:
+1 x338
+1 x339
-9.2233720368547758e+18 x395
<= 0

c_u_x179_:
+1 x340
+1 x341
+1 x342
-9.2233720368547758e+18 x396
<= 0

c_u_x170_:
+1 x343
+1 x344
+1 x345
-9.2233720368547758e+18 x397
<= 0

c_u_x189_:
+1 x330
+1 x331
-9.2233720368547758e+18 x389
<= 0

c_u_x188_:
+1 x332
+1 x333
+1 x334
-9.2233720368547758e+18 x390
<= 0

c_u_x186_:
+1 x335
+1 x336
+1 x337
-9.2233720368547758e+18 x391
<= 0

c_u_x175_:
+1 x354
+1 x355
+1 x356
-9.2233720368547758e+18 x404
<= 0

c_u_x181_:
+1 x357
+1 x358
+1 x359
-9.2233720368547758e+18 x405
<= 0

c_u_x177_:
+1 x360
+1 x361
-9.2233720368547758e+18 x406
<= 0

c_u_x172_:
+1 x346
+1 x347
+1 x348
-9.2233720368547758e+18 x398
<= 0

c_u_x178_:
+1 x349
+1 x350
+1 x351
-9.2233720368547758e+18 x399
<= 0

c_u_x174_:
+1 x352
+1 x353
-9.2233720368547758e+18 x400
<= 0

c_l_x199_:
+1 x306
-1 x307
+1 x418
>= 0

c_l_x208_:
+1 x307
-1 x308
+1 x419
>= 0

c_l_x196_:
+1 x309
-1 x310
+1 x421
>= 0

c_l_x207_:
+1 x310
-1 x311
+1 x422
>= 0

c_l_x194_:
+1 x312
-1 x313
+1 x424
>= 0

c_l_x209_:
+1 x298
-1 x299
+1 x410
>= 0

c_l_x225_:
+1 x299
-1 x300
+1 x411
>= 0

c_l_x213_:
+1 x301
-1 x302
+1 x413
>= 0

c_l_x200_:
+1 x302
-1 x303
+1 x414
>= 0

c_l_x233_:
+1 x304
-1 x305
+1 x416
>= 0

c_l_x206_:
+1 x322
-1 x323
+1 x434
>= 0

c_l_x229_:
+1 x324
-1 x325
+1 x436
>= 0

c_l_x232_:
+1 x325
-1 x326
+1 x437
>= 0

c_l_x195_:
+1 x327
-1 x328
+1 x439
>= 0

c_l_x231_:
+1 x328
-1 x329
+1 x440
>= 0

c_l_x212_:
+1 x314
-1 x315
+1 x426
>= 0

c_l_x224_:
+1 x316
-1 x317
+1 x428
>= 0

c_l_x223_:
+1 x317
-1 x318
+1 x429
>= 0

c_l_x214_:
+1 x319
-1 x320
+1 x431
>= 0

c_l_x228_:
+1 x320
-1 x321
+1 x432
>= 0

c_l_x226_:
+1 x338
-1 x339
+1 x450
>= 0

c_l_x210_:
+1 x340
-1 x341
+1 x452
>= 0

c_l_x216_:
+1 x341
-1 x342
+1 x453
>= 0

c_l_x227_:
+1 x343
-1 x344
+1 x455
>= 0

c_l_x197_:
+1 x344
-1 x345
+1 x456
>= 0

c_l_x220_:
+1 x330
-1 x331
+1 x442
>= 0

c_l_x218_:
+1 x332
-1 x333
+1 x444
>= 0

c_l_x215_:
+1 x333
-1 x334
+1 x445
>= 0

c_l_x201_:
+1 x335
-1 x336
+1 x447
>= 0

c_l_x202_:
+1 x336
-1 x337
+1 x448
>= 0

c_l_x198_:
+1 x354
-1 x355
+1 x466
>= 0

c_l_x211_:
+1 x355
-1 x356
+1 x467
>= 0

c_l_x222_:
+1 x357
-1 x358
+1 x469
>= 0

c_l_x204_:
+1 x358
-1 x359
+1 x470
>= 0

c_l_x219_:
+1 x360
-1 x361
+1 x472
>= 0

c_l_x230_:
+1 x346
-1 x347
+1 x458
>= 0

c_l_x217_:
+1 x347
-1 x348
+1 x459
>= 0

c_l_x205_:
+1 x349
-1 x350
+1 x461
>= 0

c_l_x221_:
+1 x350
-1 x351
+1 x462
>= 0

c_l_x203_:
+1 x352
-1 x353
+1 x464
>= 0

c_l_x239_:
-1 x306
+1 x307
+1 x418
>= 0

c_l_x248_:
-1 x307
+1 x308
+1 x419
>= 0

c_l_x236_:
-1 x309
+1 x310
+1 x421
>= 0

c_l_x247_:
-1 x310
+1 x311
+1 x422
>= 0

c_l_x234_:
-1 x312
+1 x313
+1 x424
>= 0

c_l_x249_:
-1 x298
+1 x299
+1 x410
>= 0

c_l_x265_:
-1 x299
+1 x300
+1 x411
>= 0

c_l_x253_:
-1 x301
+1 x302
+1 x413
>= 0

c_l_x240_:
-1 x302
+1 x303
+1 x414
>= 0

c_l_x273_:
-1 x304
+1 x305
+1 x416
>= 0

c_l_x246_:
-1 x322
+1 x323
+1 x434
>= 0

c_l_x269_:
-1 x324
+1 x325
+1 x436
>= 0

c_l_x272_:
-1 x325
+1 x326
+1 x437
>= 0

c_l_x235_:
-1 x327
+1 x328
+1 x439
>= 0

c_l_x271_:
-1 x328
+1 x329
+1 x440
>= 0

c_l_x252_:
-1 x314
+1 x315
+1 x426
>= 0

c_l_x264_:
-1 x316
+1 x317
+1 x428
>= 0

c_l_x263_:
-1 x317
+1 x318
+1 x429
>= 0

c_l_x254_:
-1 x319
+1 x320
+1 x431
>= 0

c_l_x268_:
-1 x320
+1 x321
+1 x432
>= 0

c_l_x266_:
-1 x338
+1 x339
+1 x450
>= 0

c_l_x250_:
-1 x340
+1 x341
+1 x452
>= 0

c_l_x256_:
-1 x341
+1 x342
+1 x453
>= 0

c_l_x267_:
-1 x343
+1 x344
+1 x455
>= 0

c_l_x237_:
-1 x344
+1 x345
+1 x456
>= 0

c_l_x260_:
-1 x330
+1 x331
+1 x442
>= 0

c_l_x258_:
-1 x332
+1 x333
+1 x444
>= 0

c_l_x255_:
-1 x333
+1 x334
+1 x445
>= 0

c_l_x241_:
-1 x335
+1 x336
+1 x447
>= 0

c_l_x242_:
-1 x336
+1 x337
+1 x448
>= 0

c_l_x238_:
-1 x354
+1 x355
+1 x466
>= 0

c_l_x251_:
-1 x355
+1 x356
+1 x467
>= 0

c_l_x262_:
-1 x357
+1 x358
+1 x469
>= 0

c_l_x244_:
-1 x358
+1 x359
+1 x470
>= 0

c_l_x259_:
-1 x360
+1 x361
+1 x472
>= 0

c_l_x270_:
-1 x346
+1 x347
+1 x458
>= 0

c_l_x257_:
-1 x347
+1 x348
+1 x459
>= 0

c_l_x245_:
-1 x349
+1 x350
+1 x461
>= 0

c_l_x261_:
-1 x350
+1 x351
+1 x462
>= 0

c_l_x243_:
-1 x352
+1 x353
+1 x464
>= 0

c_u_x287_:
+1 x418
+1 x419
<= 1

c_u_x289_:
+1 x421
+1 x422
<= 1

c_u_x291_:
+1 x424
<= 1

c_u_x294_:
+1 x410
+1 x411
<= 1

c_u_x297_:
+1 x413
+1 x414
<= 1

c_u_x296_:
+1 x416
<= 1

c_u_x286_:
+1 x434
<= 1

c_u_x275_:
+1 x436
+1 x437
<= 1

c_u_x295_:
+1 x439
+1 x440
<= 1

c_u_x288_:
+1 x426
<= 1

c_u_x280_:
+1 x428
+1 x429
<= 1

c_u_x284_:
+1 x431
+1 x432
<= 1

c_u_x277_:
+1 x450
<= 1

c_u_x283_:
+1 x452
+1 x453
<= 1

c_u_x274_:
+1 x455
+1 x456
<= 1

c_u_x293_:
+1 x442
<= 1

c_u_x292_:
+1 x444
+1 x445
<= 1

c_u_x290_:
+1 x447
+1 x448
<= 1

c_u_x279_:
+1 x466
+1 x467
<= 1

c_u_x285_:
+1 x469
+1 x470
<= 1

c_u_x281_:
+1 x472
<= 1

c_u_x276_:
+1 x458
+1 x459
<= 1

c_u_x282_:
+1 x461
+1 x462
<= 1

c_u_x278_:
+1 x464
<= 1

c_e_ONE_VAR_CONSTANT: 
ONE_VAR_CONSTANT = 1.0

bounds 
   0 <= x306 <= 1
   0 <= x307 <= 1
   0 <= x308 <= 1
   0 <= x309 <= 1
   0 <= x310 <= 1
   0 <= x311 <= 1
   0 <= x312 <= 1
   0 <= x313 <= 1
   0 <= x298 <= 1
   0 <= x299 <= 1
   0 <= x300 <= 1
   0 <= x301 <= 1
   0 <= x302 <= 1
   0 <= x303 <= 1
   0 <= x304 <= 1
   0 <= x305 <= 1
   0 <= x322 <= 1
   0 <= x323 <= 1
   0 <= x324 <= 1
   0 <= x325 <= 1
   0 <= x326 <= 1
   0 <= x327 <= 1
   0 <= x328 <= 1
   0 <= x329 <= 1
   0 <= x314 <= 1
   0 <= x315 <= 1
   0 <= x316 <= 1
   0 <= x317 <= 1
   0 <= x318 <= 1
   0 <= x319 <= 1
   0 <= x320 <= 1
   0 <= x321 <= 1
   0 <= x338 <= 1
   0 <= x339 <= 1
   0 <= x340 <= 1
   0 <= x341 <= 1
   0 <= x342 <= 1
   0 <= x343 <= 1
   0 <= x344 <= 1
   0 <= x345 <= 1
   0 <= x330 <= 1
   0 <= x331 <= 1
   0 <= x332 <= 1
   0 <= x333 <= 1
   0 <= x334 <= 1
   0 <= x335 <= 1
   0 <= x336 <= 1
   0 <= x337 <= 1
   0 <= x354 <= 1
   0 <= x355 <= 1
   0 <= x356 <= 1
   0 <= x357 <= 1
   0 <= x358 <= 1
   0 <= x359 <= 1
   0 <= x360 <= 1
   0 <= x361 <= 1
   0 <= x346 <= 1
   0 <= x347 <= 1
   0 <= x348 <= 1
   0 <= x349 <= 1
   0 <= x350 <= 1
   0 <= x351 <= 1
   0 <= x352 <= 1
   0 <= x353 <= 1
   0 <= x368 <= 1
   0 <= x369 <= 1
   0 <= x370 <= 1
   0 <= x362 <= 1
   0 <= x363 <= 1
   0 <= x364 <= 1
   0 <= x383 <= 1
   0 <= x384 <= 1
   0 <= x385 <= 1
   0 <= x377 <= 1
   0 <= x378 <= 1
   0 <= x379 <= 1
   0 <= x395 <= 1
   0 <= x396 <= 1
   0 <= x397 <= 1
   0 <= x389 <= 1
   0 <= x390 <= 1
   0 <= x391 <= 1
   0 <= x404 <= 1
   0 <= x405 <= 1
   0 <= x406 <= 1
   0 <= x398 <= 1
   0 <= x399 <= 1
   0 <= x400 <= 1
    -inf <= x418 <= +inf
    -inf <= x419 <= +inf
    -inf <= x421 <= +inf
    -inf <= x422 <= +inf
    -inf <= x424 <= +inf
    -inf <= x410 <= +inf
    -inf <= x411 <= +inf
    -inf <= x413 <= +inf
    -inf <= x414 <= +inf
    -inf <= x416 <= +inf
    -inf <= x434 <= +inf
    -inf <= x436 <= +inf
    -inf <= x437 <= +inf
    -inf <= x439 <= +inf
    -inf <= x440 <= +inf
    -inf <= x426 <= +inf
    -inf <= x428 <= +inf
    -inf <= x429 <= +inf
    -inf <= x431 <= +inf
    -inf <= x432 <= +inf
    -inf <= x450 <= +inf
    -inf <= x452 <= +inf
    -inf <= x453 <= +inf
    -inf <= x455 <= +inf
    -inf <= x456 <= +inf
    -inf <= x442 <= +inf
    -inf <= x444 <= +inf
    -inf <= x445 <= +inf
    -inf <= x447 <= +inf
    -inf <= x448 <= +inf
    -inf <= x466 <= +inf
    -inf <= x467 <= +inf
    -inf <= x469 <= +inf
    -inf <= x470 <= +inf
    -inf <= x472 <= +inf
    -inf <= x458 <= +inf
    -inf <= x459 <= +inf
    -inf <= x461 <= +inf
    -inf <= x462 <= +inf
    -inf <= x464 <= +inf
general
  x418
  x419
  x421
  x422
  x424
  x410
  x411
  x413
  x414
  x416
  x434
  x436
  x437
  x439
  x440
  x426
  x428
  x429
  x431
  x432
  x450
  x452
  x453
  x455
  x456
  x442
  x444
  x445
  x447
  x448
  x466
  x467
  x469
  x470
  x472
  x458
  x459
  x461
  x462
  x464
binary
  x306
  x307
  x308
  x309
  x310
  x311
  x312
  x313
  x298
  x299
  x300
  x301
  x302
  x303
  x304
  x305
  x322
  x323
  x324
  x325
  x326
  x327
  x328
  x329
  x314
  x315
  x316
  x317
  x318
  x319
  x320
  x321
  x338
  x339
  x340
  x341
  x342
  x343
  x344
  x345
  x330
  x331
  x332
  x333
  x334
  x335
  x336
  x337
  x354
  x355
  x356
  x357
  x358
  x359
  x360
  x361
  x346
  x347
  x348
  x349
  x350
  x351
  x352
  x353
  x368
  x369
  x370
  x362
  x363
  x364
  x383
  x384
  x385
  x377
  x378
  x379
  x395
  x396
  x397
  x389
  x390
  x391
  x404
  x405
  x406
  x398
  x399
  x400
end 
